\ENCODING=ISO-8859-1
\Problem name: TSP

Minimize
 obj1: 0 x1 + 19.6633570857017 x2 + 8.39834512590594 x3 + 20.5933096343962 x4
       + 21.4575334839146 x5 + 7.84613964185785 x6 + 18.5294201384865 x7
       + 17.1616174304918 x8 + 16.2439610291661 x9 + 4.24067962886733 x10
       + 6.04506686581207 x11 + 19.7654602597611 x12 + 7.6652468221513 x13
       + 13.5248879351492 x14 + 8.17863460896236 x15 + 7.05120318194032 x16
       + 13.464840435575 x17 + 17.4820352172857 x18 + 17.7722361473493 x19
       + 19.6633570857017 x20 + 0 x21 + 11.3562391126783 x22
       + 2.87240476713346 x23 + 1.90153898802116 x24 + 14.2850639988453 x25
       + 2.80249942998072 x26 + 3.82550874890979 x27 + 5.34249068318604 x28
       + 16.4769561899306 x29 + 14.094331332649 x30 + 6.48240958143787 x31
       + 14.2516867851229 x32 + 10.9110666013707 x33 + 14.0524856392474 x34
       + 13.8832300683059 x35 + 10.1242211262409 x36 + 12.2131455815126 x37
       + 6.02058716181745 x38 + 8.39834512590594 x39 + 11.3562391126783 x40
       + 0 x41 + 12.1988171431597 x42 + 13.1045534881254 x43
       + 6.12079063847046 x44 + 10.1349690893716 x45 + 9.33831298244378 x46
       + 7.96630673085545 x47 + 6.06573725178875 x48 + 3.93629376284956 x49
       + 12.693851698859 x50 + 4.23087302358321 x51 + 6.98279654040468 x52
       + 6.16577519334936 x53 + 3.24573777462597 x54 + 6.49945182201163 x55
       + 11.2045771079435 x56 + 10.6615914542747 x57 + 20.5933096343962 x58
       + 2.87240476713346 x59 + 12.1988171431597 x60 + 0 x61
       + 2.35946243312709 x62 + 16.0907668592355 x63 + 2.06394739507175 x64
       + 6.47094035933634 x65 + 4.68353942109313 x66 + 17.8346446602474 x67
       + 15.4477384904307 x68 + 9.34239420509884 x69 + 14.3559484116844 x70
       + 9.97923594351612 x71 + 15.896888451835 x72 + 14.223025340004 x73
       + 9.31325933893786 x74 + 10.3252428806008 x75 + 8.85106708881787 x76
       + 21.4575334839146 x77 + 1.90153898802116 x78 + 13.1045534881254 x79
       + 2.35946243312709 x80 + 0 x81 + 16.1865055739992 x82
       + 3.58406915846957 x83 + 5.6110328596339 x84 + 6.40397679401566 x85
       + 18.3452603350193 x86 + 15.9583336224261 x87 + 7.58417384689688 x88
       + 15.776694250031 x89 + 11.937037644355 x90 + 15.953988136435 x91
       + 15.4914832718461 x92 + 11.2070650114496 x93 + 12.6315814420699 x94
       + 7.52608625578467 x95 + 7.84613964185785 x96 + 14.2850639988453 x97
       + 6.12079063847046 x98 + 16.0907668592355 x99 + 16.1865055739992 x100
       + 0 x101 + 14.1678305760992 x102 + 10.9443613342742 x103
       + 12.8305450852259 x104 + 3.60609216524357 x105 + 2.8560945405616 x106
       + 12.592646287891 x107 + 9.35855782489361 x108 + 13.0856753820879 x109
       + 0.338672078193878 x110 + 8.16598370655526 x111 + 12.5508071782067 x112
       + 17.279270659939 x113 + 10.7485570347751 x114 + 18.5294201384865 x115
       + 2.80249942998072 x116 + 10.1349690893716 x117 + 2.06394739507175 x118
       + 3.58406915846957 x119 + 14.1678305760992 x120 + 0 x121
       + 5.36712253864502 x122 + 2.82575413132871 x123 + 15.8009103362754 x124
       + 13.4184956392179 x125 + 8.89854778610759 x126 + 12.3770959018939 x127
       + 8.35813795757638 x128 + 13.9884116330311 x129 + 12.1997530696731 x130
       + 7.62309212553159 x131 + 9.41117539609341 x132 + 7.97994717329831 x133
       + 17.1616174304918 x134 + 3.82550874890979 x135 + 9.33831298244378 x136
       + 6.47094035933634 x137 + 5.6110328596339 x138 + 10.9443613342742 x139
       + 5.36712253864502 x140 + 0 x141 + 6.50108494584447 x142
       + 13.5638683191495 x143 + 11.2614035567553 x144 + 4.10563895575603 x145
       + 13.0007261020506 x146 + 11.3083602813491 x147 + 10.6779713904657 x148
       + 12.3453557819188 x149 + 10.4520070893485 x150 + 13.7767704360661 x151
       + 2.67485710291221 x152 + 16.2439610291661 x153 + 5.34249068318604 x154
       + 7.96630673085545 x155 + 4.68353942109313 x156 + 6.40397679401566 x157
       + 12.8305450852259 x158 + 2.82575413132871 x159 + 6.50108494584447 x160
       + 0 x161 + 13.9173397135615 x162 + 11.5986045301282 x163
       + 10.5186782060468 x164 + 9.69218731680786 x165 + 5.58026512476645 x166
       + 12.7076719835103 x167 + 9.6265975783192 x168 + 4.81750837651799 x169
       + 7.29402894873992 x170 + 9.14599278964044 x171 + 4.24067962886733 x172
       + 16.4769561899306 x173 + 6.06573725178875 x174 + 17.8346446602474 x175
       + 18.3452603350193 x176 + 3.60609216524357 x177 + 15.8009103362754 x178
       + 13.5638683191495 x179 + 13.9173397135615 x180 + 0 x181
       + 2.39251088839343 x182 + 15.7898227628271 x183 + 7.63646321425392 x184
       + 12.6514255894461 x185 + 3.93801420884214 x186 + 6.55434922408907 x187
       + 12.3264145705795 x188 + 16.8773408225302 x189 + 13.8454482874274 x190
       + 6.04506686581207 x191 + 14.094331332649 x192 + 3.93629376284956 x193
       + 15.4477384904307 x194 + 15.9583336224261 x195 + 2.8560945405616 x196
       + 13.4184956392179 x197 + 11.2614035567553 x198 + 11.5986045301282 x199
       + 2.39251088839343 x200 + 0 x201 + 13.7204787929436 x202
       + 6.56173933935597 x203 + 10.8259714285574 x204 + 3.06990163447403 x205
       + 5.37567162424056 x206 + 10.4015497119724 x207 + 15.0676521820388 x208
       + 11.7306930625368 x209 + 19.7654602597611 x210 + 6.48240958143787 x211
       + 12.693851698859 x212 + 9.34239420509884 x213 + 7.58417384689688 x214
       + 12.592646287891 x215 + 8.89854778610759 x216 + 4.10563895575603 x217
       + 10.5186782060468 x218 + 15.7898227628271 x219 + 13.7204787929436 x220
       + 0 x221 + 16.6585260796781 x222 + 15.4071885775191 x223
       + 12.2732210943267 x224 + 15.8719220012857 x225 + 14.5501692565123 x226
       + 17.8127049684491 x227 + 2.04054105594308 x228 + 7.6652468221513 x229
       + 14.2516867851229 x230 + 4.23087302358321 x231 + 14.3559484116844 x232
       + 15.776694250031 x233 + 9.35855782489361 x234 + 12.3770959018939 x235
       + 13.0007261020506 x236 + 9.69218731680786 x237 + 7.63646321425392 x238
       + 6.56173933935597 x239 + 16.6585260796781 x240 + 0 x241
       + 5.9115030570066 x242 + 9.51603304139418 x243 + 1.19294573988463 x244
       + 5.97153414625518 x245 + 9.82034873145589 x246 + 14.6572655276551 x247
       + 13.5248879351492 x248 + 10.9110666013707 x249 + 6.98279654040468 x250
       + 9.97923594351612 x251 + 11.937037644355 x252 + 13.0856753820879 x253
       + 8.35813795757638 x254 + 11.3083602813491 x255 + 5.58026512476645 x256
       + 12.6514255894461 x257 + 10.8259714285574 x258 + 15.4071885775191 x259
       + 5.9115030570066 x260 + 0 x261 + 13.1069636759148 x262
       + 6.50236170676644 x263 + 0.857444158160983 x264 + 4.24293726599592 x265
       + 13.7053065941322 x266 + 8.17863460896236 x267 + 14.0524856392474 x268
       + 6.16577519334936 x269 + 15.896888451835 x270 + 15.953988136435 x271
       + 0.338672078193878 x272 + 13.9884116330311 x273 + 10.6779713904657 x274
       + 12.7076719835103 x275 + 3.93801420884214 x276 + 3.06990163447403 x277
       + 12.2732210943267 x278 + 9.51603304139418 x279 + 13.1069636759148 x280
       + 0 x281 + 8.32313607922209 x282 + 12.5545935604775 x283
       + 17.2849861530688 x284 + 10.4387381173924 x285 + 7.05120318194032 x286
       + 13.8832300683059 x287 + 3.24573777462597 x288 + 14.223025340004 x289
       + 15.4914832718461 x290 + 8.16598370655526 x291 + 12.1997530696731 x292
       + 12.3453557819188 x293 + 9.6265975783192 x294 + 6.55434922408907 x295
       + 5.37567162424056 x296 + 15.8719220012857 x297 + 1.19294573988463 x298
       + 6.50236170676644 x299 + 8.32313607922209 x300 + 0 x301
       + 6.41364348857772 x302 + 10.584572845539 x303 + 13.8508308917265 x304
       + 13.464840435575 x305 + 10.1242211262409 x306 + 6.49945182201163 x307
       + 9.31325933893786 x308 + 11.2070650114496 x309 + 12.5508071782067 x310
       + 7.62309212553159 x311 + 10.4520070893485 x312 + 4.81750837651799 x313
       + 12.3264145705795 x314 + 10.4015497119724 x315 + 14.5501692565123 x316
       + 5.97153414625518 x317 + 0.857444158160983 x318 + 12.5545935604775 x319
       + 6.41364348857772 x320 + 0 x321 + 4.73048474518195 x322
       + 12.8488681915125 x323 + 17.4820352172857 x324 + 12.2131455815126 x325
       + 11.2045771079435 x326 + 10.3252428806008 x327 + 12.6315814420699 x328
       + 17.279270659939 x329 + 9.41117539609341 x330 + 13.7767704360661 x331
       + 7.29402894873992 x332 + 16.8773408225302 x333 + 15.0676521820388 x334
       + 17.8127049684491 x335 + 9.82034873145589 x336 + 4.24293726599592 x337
       + 17.2849861530688 x338 + 10.584572845539 x339 + 4.73048474518195 x340
       + 0 x341 + 16.3912445921926 x342 + 17.7722361473493 x343
       + 6.02058716181745 x344 + 10.6615914542747 x345 + 8.85106708881787 x346
       + 7.52608625578467 x347 + 10.7485570347751 x348 + 7.97994717329831 x349
       + 2.67485710291221 x350 + 9.14599278964044 x351 + 13.8454482874274 x352
       + 11.7306930625368 x353 + 2.04054105594308 x354 + 14.6572655276551 x355
       + 13.7053065941322 x356 + 10.4387381173924 x357 + 13.8508308917265 x358
       + 12.8488681915125 x359 + 16.3912445921926 x360 + 0 x361 + 0 x362
       + 0 x363 + 0 x364 + 0 x365 + 0 x366 + 0 x367 + 0 x368 + 0 x369 + 0 x370
       + 0 x371 + 0 x372 + 0 x373 + 0 x374 + 0 x375 + 0 x376 + 0 x377 + 0 x378
       + 0 x379
Subject To
 c1:  x20 + x39 + x58 + x77 + x96 + x115 + x134 + x153 + x172 + x191 + x210
      + x229 + x248 + x267 + x286 + x305 + x324 + x343  = 1
 c2:  x2 + x40 + x59 + x78 + x97 + x116 + x135 + x154 + x173 + x192 + x211
      + x230 + x249 + x268 + x287 + x306 + x325 + x344  = 1
 c3:  x3 + x22 + x60 + x79 + x98 + x117 + x136 + x155 + x174 + x193 + x212
      + x231 + x250 + x269 + x288 + x307 + x326 + x345  = 1
 c4:  x4 + x23 + x42 + x80 + x99 + x118 + x137 + x156 + x175 + x194 + x213
      + x232 + x251 + x270 + x289 + x308 + x327 + x346  = 1
 c5:  x5 + x24 + x43 + x62 + x100 + x119 + x138 + x157 + x176 + x195 + x214
      + x233 + x252 + x271 + x290 + x309 + x328 + x347  = 1
 c6:  x6 + x25 + x44 + x63 + x82 + x120 + x139 + x158 + x177 + x196 + x215
      + x234 + x253 + x272 + x291 + x310 + x329 + x348  = 1
 c7:  x7 + x26 + x45 + x64 + x83 + x102 + x140 + x159 + x178 + x197 + x216
      + x235 + x254 + x273 + x292 + x311 + x330 + x349  = 1
 c8:  x8 + x27 + x46 + x65 + x84 + x103 + x122 + x160 + x179 + x198 + x217
      + x236 + x255 + x274 + x293 + x312 + x331 + x350  = 1
 c9:  x9 + x28 + x47 + x66 + x85 + x104 + x123 + x142 + x180 + x199 + x218
      + x237 + x256 + x275 + x294 + x313 + x332 + x351  = 1
 c10: x10 + x29 + x48 + x67 + x86 + x105 + x124 + x143 + x162 + x200 + x219
      + x238 + x257 + x276 + x295 + x314 + x333 + x352  = 1
 c11: x11 + x30 + x49 + x68 + x87 + x106 + x125 + x144 + x163 + x182 + x220
      + x239 + x258 + x277 + x296 + x315 + x334 + x353  = 1
 c12: x12 + x31 + x50 + x69 + x88 + x107 + x126 + x145 + x164 + x183 + x202
      + x240 + x259 + x278 + x297 + x316 + x335 + x354  = 1
 c13: x13 + x32 + x51 + x70 + x89 + x108 + x127 + x146 + x165 + x184 + x203
      + x222 + x260 + x279 + x298 + x317 + x336 + x355  = 1
 c14: x14 + x33 + x52 + x71 + x90 + x109 + x128 + x147 + x166 + x185 + x204
      + x223 + x242 + x280 + x299 + x318 + x337 + x356  = 1
 c15: x15 + x34 + x53 + x72 + x91 + x110 + x129 + x148 + x167 + x186 + x205
      + x224 + x243 + x262 + x300 + x319 + x338 + x357  = 1
 c16: x16 + x35 + x54 + x73 + x92 + x111 + x130 + x149 + x168 + x187 + x206
      + x225 + x244 + x263 + x282 + x320 + x339 + x358  = 1
 c17: x17 + x36 + x55 + x74 + x93 + x112 + x131 + x150 + x169 + x188 + x207
      + x226 + x245 + x264 + x283 + x302 + x340 + x359  = 1
 c18: x18 + x37 + x56 + x75 + x94 + x113 + x132 + x151 + x170 + x189 + x208
      + x227 + x246 + x265 + x284 + x303 + x322 + x360  = 1
 c19: x19 + x38 + x57 + x76 + x95 + x114 + x133 + x152 + x171 + x190 + x209
      + x228 + x247 + x266 + x285 + x304 + x323 + x342  = 1
 c20: x2 + x3 + x4 + x5 + x6 + x7 + x8 + x9 + x10 + x11 + x12 + x13 + x14 + x15
      + x16 + x17 + x18 + x19  = 1
 c21: x20 + x22 + x23 + x24 + x25 + x26 + x27 + x28 + x29 + x30 + x31 + x32
      + x33 + x34 + x35 + x36 + x37 + x38  = 1
 c22: x39 + x40 + x42 + x43 + x44 + x45 + x46 + x47 + x48 + x49 + x50 + x51
      + x52 + x53 + x54 + x55 + x56 + x57  = 1
 c23: x58 + x59 + x60 + x62 + x63 + x64 + x65 + x66 + x67 + x68 + x69 + x70
      + x71 + x72 + x73 + x74 + x75 + x76  = 1
 c24: x77 + x78 + x79 + x80 + x82 + x83 + x84 + x85 + x86 + x87 + x88 + x89
      + x90 + x91 + x92 + x93 + x94 + x95  = 1
 c25: x96 + x97 + x98 + x99 + x100 + x102 + x103 + x104 + x105 + x106 + x107
      + x108 + x109 + x110 + x111 + x112 + x113 + x114  = 1
 c26: x115 + x116 + x117 + x118 + x119 + x120 + x122 + x123 + x124 + x125
      + x126 + x127 + x128 + x129 + x130 + x131 + x132 + x133  = 1
 c27: x134 + x135 + x136 + x137 + x138 + x139 + x140 + x142 + x143 + x144
      + x145 + x146 + x147 + x148 + x149 + x150 + x151 + x152  = 1
 c28: x153 + x154 + x155 + x156 + x157 + x158 + x159 + x160 + x162 + x163
      + x164 + x165 + x166 + x167 + x168 + x169 + x170 + x171  = 1
 c29: x172 + x173 + x174 + x175 + x176 + x177 + x178 + x179 + x180 + x182
      + x183 + x184 + x185 + x186 + x187 + x188 + x189 + x190  = 1
 c30: x191 + x192 + x193 + x194 + x195 + x196 + x197 + x198 + x199 + x200
      + x202 + x203 + x204 + x205 + x206 + x207 + x208 + x209  = 1
 c31: x210 + x211 + x212 + x213 + x214 + x215 + x216 + x217 + x218 + x219
      + x220 + x222 + x223 + x224 + x225 + x226 + x227 + x228  = 1
 c32: x229 + x230 + x231 + x232 + x233 + x234 + x235 + x236 + x237 + x238
      + x239 + x240 + x242 + x243 + x244 + x245 + x246 + x247  = 1
 c33: x248 + x249 + x250 + x251 + x252 + x253 + x254 + x255 + x256 + x257
      + x258 + x259 + x260 + x262 + x263 + x264 + x265 + x266  = 1
 c34: x267 + x268 + x269 + x270 + x271 + x272 + x273 + x274 + x275 + x276
      + x277 + x278 + x279 + x280 + x282 + x283 + x284 + x285  = 1
 c35: x286 + x287 + x288 + x289 + x290 + x291 + x292 + x293 + x294 + x295
      + x296 + x297 + x298 + x299 + x300 + x302 + x303 + x304  = 1
 c36: x305 + x306 + x307 + x308 + x309 + x310 + x311 + x312 + x313 + x314
      + x315 + x316 + x317 + x318 + x319 + x320 + x322 + x323  = 1
 c37: x324 + x325 + x326 + x327 + x328 + x329 + x330 + x331 + x332 + x333
      + x334 + x335 + x336 + x337 + x338 + x339 + x340 + x342  = 1
 c38: x343 + x344 + x345 + x346 + x347 + x348 + x349 + x350 + x351 + x352
      + x353 + x354 + x355 + x356 + x357 + x358 + x359 + x360  = 1
Lazy Constraints
 l1:   x362 - x363 + 18 x22 <= 17
 l2:   x362 - x364 + 18 x23 <= 17
 l3:   x362 - x365 + 18 x24 <= 17
 l4:   x362 - x366 + 18 x25 <= 17
 l5:   x362 - x367 + 18 x26 <= 17
 l6:   x362 - x368 + 18 x27 <= 17
 l7:   x362 - x369 + 18 x28 <= 17
 l8:   x362 - x370 + 18 x29 <= 17
 l9:   x362 - x371 + 18 x30 <= 17
 l10:  x362 - x372 + 18 x31 <= 17
 l11:  x362 - x373 + 18 x32 <= 17
 l12:  x362 - x374 + 18 x33 <= 17
 l13:  x362 - x375 + 18 x34 <= 17
 l14:  x362 - x376 + 18 x35 <= 17
 l15:  x362 - x377 + 18 x36 <= 17
 l16:  x362 - x378 + 18 x37 <= 17
 l17:  x362 - x379 + 18 x38 <= 17
 l18:  x363 - x362 + 18 x40 <= 17
 l19:  x363 - x364 + 18 x42 <= 17
 l20:  x363 - x365 + 18 x43 <= 17
 l21:  x363 - x366 + 18 x44 <= 17
 l22:  x363 - x367 + 18 x45 <= 17
 l23:  x363 - x368 + 18 x46 <= 17
 l24:  x363 - x369 + 18 x47 <= 17
 l25:  x363 - x370 + 18 x48 <= 17
 l26:  x363 - x371 + 18 x49 <= 17
 l27:  x363 - x372 + 18 x50 <= 17
 l28:  x363 - x373 + 18 x51 <= 17
 l29:  x363 - x374 + 18 x52 <= 17
 l30:  x363 - x375 + 18 x53 <= 17
 l31:  x363 - x376 + 18 x54 <= 17
 l32:  x363 - x377 + 18 x55 <= 17
 l33:  x363 - x378 + 18 x56 <= 17
 l34:  x363 - x379 + 18 x57 <= 17
 l35:  x364 - x362 + 18 x59 <= 17
 l36:  x364 - x363 + 18 x60 <= 17
 l37:  x364 - x365 + 18 x62 <= 17
 l38:  x364 - x366 + 18 x63 <= 17
 l39:  x364 - x367 + 18 x64 <= 17
 l40:  x364 - x368 + 18 x65 <= 17
 l41:  x364 - x369 + 18 x66 <= 17
 l42:  x364 - x370 + 18 x67 <= 17
 l43:  x364 - x371 + 18 x68 <= 17
 l44:  x364 - x372 + 18 x69 <= 17
 l45:  x364 - x373 + 18 x70 <= 17
 l46:  x364 - x374 + 18 x71 <= 17
 l47:  x364 - x375 + 18 x72 <= 17
 l48:  x364 - x376 + 18 x73 <= 17
 l49:  x364 - x377 + 18 x74 <= 17
 l50:  x364 - x378 + 18 x75 <= 17
 l51:  x364 - x379 + 18 x76 <= 17
 l52:  x365 - x362 + 18 x78 <= 17
 l53:  x365 - x363 + 18 x79 <= 17
 l54:  x365 - x364 + 18 x80 <= 17
 l55:  x365 - x366 + 18 x82 <= 17
 l56:  x365 - x367 + 18 x83 <= 17
 l57:  x365 - x368 + 18 x84 <= 17
 l58:  x365 - x369 + 18 x85 <= 17
 l59:  x365 - x370 + 18 x86 <= 17
 l60:  x365 - x371 + 18 x87 <= 17
 l61:  x365 - x372 + 18 x88 <= 17
 l62:  x365 - x373 + 18 x89 <= 17
 l63:  x365 - x374 + 18 x90 <= 17
 l64:  x365 - x375 + 18 x91 <= 17
 l65:  x365 - x376 + 18 x92 <= 17
 l66:  x365 - x377 + 18 x93 <= 17
 l67:  x365 - x378 + 18 x94 <= 17
 l68:  x365 - x379 + 18 x95 <= 17
 l69:  x366 - x362 + 18 x97 <= 17
 l70:  x366 - x363 + 18 x98 <= 17
 l71:  x366 - x364 + 18 x99 <= 17
 l72:  x366 - x365 + 18 x100 <= 17
 l73:  x366 - x367 + 18 x102 <= 17
 l74:  x366 - x368 + 18 x103 <= 17
 l75:  x366 - x369 + 18 x104 <= 17
 l76:  x366 - x370 + 18 x105 <= 17
 l77:  x366 - x371 + 18 x106 <= 17
 l78:  x366 - x372 + 18 x107 <= 17
 l79:  x366 - x373 + 18 x108 <= 17
 l80:  x366 - x374 + 18 x109 <= 17
 l81:  x366 - x375 + 18 x110 <= 17
 l82:  x366 - x376 + 18 x111 <= 17
 l83:  x366 - x377 + 18 x112 <= 17
 l84:  x366 - x378 + 18 x113 <= 17
 l85:  x366 - x379 + 18 x114 <= 17
 l86:  x367 - x362 + 18 x116 <= 17
 l87:  x367 - x363 + 18 x117 <= 17
 l88:  x367 - x364 + 18 x118 <= 17
 l89:  x367 - x365 + 18 x119 <= 17
 l90:  x367 - x366 + 18 x120 <= 17
 l91:  x367 - x368 + 18 x122 <= 17
 l92:  x367 - x369 + 18 x123 <= 17
 l93:  x367 - x370 + 18 x124 <= 17
 l94:  x367 - x371 + 18 x125 <= 17
 l95:  x367 - x372 + 18 x126 <= 17
 l96:  x367 - x373 + 18 x127 <= 17
 l97:  x367 - x374 + 18 x128 <= 17
 l98:  x367 - x375 + 18 x129 <= 17
 l99:  x367 - x376 + 18 x130 <= 17
 l100: x367 - x377 + 18 x131 <= 17
 l101: x367 - x378 + 18 x132 <= 17
 l102: x367 - x379 + 18 x133 <= 17
 l103: x368 - x362 + 18 x135 <= 17
 l104: x368 - x363 + 18 x136 <= 17
 l105: x368 - x364 + 18 x137 <= 17
 l106: x368 - x365 + 18 x138 <= 17
 l107: x368 - x366 + 18 x139 <= 17
 l108: x368 - x367 + 18 x140 <= 17
 l109: x368 - x369 + 18 x142 <= 17
 l110: x368 - x370 + 18 x143 <= 17
 l111: x368 - x371 + 18 x144 <= 17
 l112: x368 - x372 + 18 x145 <= 17
 l113: x368 - x373 + 18 x146 <= 17
 l114: x368 - x374 + 18 x147 <= 17
 l115: x368 - x375 + 18 x148 <= 17
 l116: x368 - x376 + 18 x149 <= 17
 l117: x368 - x377 + 18 x150 <= 17
 l118: x368 - x378 + 18 x151 <= 17
 l119: x368 - x379 + 18 x152 <= 17
 l120: x369 - x362 + 18 x154 <= 17
 l121: x369 - x363 + 18 x155 <= 17
 l122: x369 - x364 + 18 x156 <= 17
 l123: x369 - x365 + 18 x157 <= 17
 l124: x369 - x366 + 18 x158 <= 17
 l125: x369 - x367 + 18 x159 <= 17
 l126: x369 - x368 + 18 x160 <= 17
 l127: x369 - x370 + 18 x162 <= 17
 l128: x369 - x371 + 18 x163 <= 17
 l129: x369 - x372 + 18 x164 <= 17
 l130: x369 - x373 + 18 x165 <= 17
 l131: x369 - x374 + 18 x166 <= 17
 l132: x369 - x375 + 18 x167 <= 17
 l133: x369 - x376 + 18 x168 <= 17
 l134: x369 - x377 + 18 x169 <= 17
 l135: x369 - x378 + 18 x170 <= 17
 l136: x369 - x379 + 18 x171 <= 17
 l137: x370 - x362 + 18 x173 <= 17
 l138: x370 - x363 + 18 x174 <= 17
 l139: x370 - x364 + 18 x175 <= 17
 l140: x370 - x365 + 18 x176 <= 17
 l141: x370 - x366 + 18 x177 <= 17
 l142: x370 - x367 + 18 x178 <= 17
 l143: x370 - x368 + 18 x179 <= 17
 l144: x370 - x369 + 18 x180 <= 17
 l145: x370 - x371 + 18 x182 <= 17
 l146: x370 - x372 + 18 x183 <= 17
 l147: x370 - x373 + 18 x184 <= 17
 l148: x370 - x374 + 18 x185 <= 17
 l149: x370 - x375 + 18 x186 <= 17
 l150: x370 - x376 + 18 x187 <= 17
 l151: x370 - x377 + 18 x188 <= 17
 l152: x370 - x378 + 18 x189 <= 17
 l153: x370 - x379 + 18 x190 <= 17
 l154: x371 - x362 + 18 x192 <= 17
 l155: x371 - x363 + 18 x193 <= 17
 l156: x371 - x364 + 18 x194 <= 17
 l157: x371 - x365 + 18 x195 <= 17
 l158: x371 - x366 + 18 x196 <= 17
 l159: x371 - x367 + 18 x197 <= 17
 l160: x371 - x368 + 18 x198 <= 17
 l161: x371 - x369 + 18 x199 <= 17
 l162: x371 - x370 + 18 x200 <= 17
 l163: x371 - x372 + 18 x202 <= 17
 l164: x371 - x373 + 18 x203 <= 17
 l165: x371 - x374 + 18 x204 <= 17
 l166: x371 - x375 + 18 x205 <= 17
 l167: x371 - x376 + 18 x206 <= 17
 l168: x371 - x377 + 18 x207 <= 17
 l169: x371 - x378 + 18 x208 <= 17
 l170: x371 - x379 + 18 x209 <= 17
 l171: x372 - x362 + 18 x211 <= 17
 l172: x372 - x363 + 18 x212 <= 17
 l173: x372 - x364 + 18 x213 <= 17
 l174: x372 - x365 + 18 x214 <= 17
 l175: x372 - x366 + 18 x215 <= 17
 l176: x372 - x367 + 18 x216 <= 17
 l177: x372 - x368 + 18 x217 <= 17
 l178: x372 - x369 + 18 x218 <= 17
 l179: x372 - x370 + 18 x219 <= 17
 l180: x372 - x371 + 18 x220 <= 17
 l181: x372 - x373 + 18 x222 <= 17
 l182: x372 - x374 + 18 x223 <= 17
 l183: x372 - x375 + 18 x224 <= 17
 l184: x372 - x376 + 18 x225 <= 17
 l185: x372 - x377 + 18 x226 <= 17
 l186: x372 - x378 + 18 x227 <= 17
 l187: x372 - x379 + 18 x228 <= 17
 l188: x373 - x362 + 18 x230 <= 17
 l189: x373 - x363 + 18 x231 <= 17
 l190: x373 - x364 + 18 x232 <= 17
 l191: x373 - x365 + 18 x233 <= 17
 l192: x373 - x366 + 18 x234 <= 17
 l193: x373 - x367 + 18 x235 <= 17
 l194: x373 - x368 + 18 x236 <= 17
 l195: x373 - x369 + 18 x237 <= 17
 l196: x373 - x370 + 18 x238 <= 17
 l197: x373 - x371 + 18 x239 <= 17
 l198: x373 - x372 + 18 x240 <= 17
 l199: x373 - x374 + 18 x242 <= 17
 l200: x373 - x375 + 18 x243 <= 17
 l201: x373 - x376 + 18 x244 <= 17
 l202: x373 - x377 + 18 x245 <= 17
 l203: x373 - x378 + 18 x246 <= 17
 l204: x373 - x379 + 18 x247 <= 17
 l205: x374 - x362 + 18 x249 <= 17
 l206: x374 - x363 + 18 x250 <= 17
 l207: x374 - x364 + 18 x251 <= 17
 l208: x374 - x365 + 18 x252 <= 17
 l209: x374 - x366 + 18 x253 <= 17
 l210: x374 - x367 + 18 x254 <= 17
 l211: x374 - x368 + 18 x255 <= 17
 l212: x374 - x369 + 18 x256 <= 17
 l213: x374 - x370 + 18 x257 <= 17
 l214: x374 - x371 + 18 x258 <= 17
 l215: x374 - x372 + 18 x259 <= 17
 l216: x374 - x373 + 18 x260 <= 17
 l217: x374 - x375 + 18 x262 <= 17
 l218: x374 - x376 + 18 x263 <= 17
 l219: x374 - x377 + 18 x264 <= 17
 l220: x374 - x378 + 18 x265 <= 17
 l221: x374 - x379 + 18 x266 <= 17
 l222: x375 - x362 + 18 x268 <= 17
 l223: x375 - x363 + 18 x269 <= 17
 l224: x375 - x364 + 18 x270 <= 17
 l225: x375 - x365 + 18 x271 <= 17
 l226: x375 - x366 + 18 x272 <= 17
 l227: x375 - x367 + 18 x273 <= 17
 l228: x375 - x368 + 18 x274 <= 17
 l229: x375 - x369 + 18 x275 <= 17
 l230: x375 - x370 + 18 x276 <= 17
 l231: x375 - x371 + 18 x277 <= 17
 l232: x375 - x372 + 18 x278 <= 17
 l233: x375 - x373 + 18 x279 <= 17
 l234: x375 - x374 + 18 x280 <= 17
 l235: x375 - x376 + 18 x282 <= 17
 l236: x375 - x377 + 18 x283 <= 17
 l237: x375 - x378 + 18 x284 <= 17
 l238: x375 - x379 + 18 x285 <= 17
 l239: x376 - x362 + 18 x287 <= 17
 l240: x376 - x363 + 18 x288 <= 17
 l241: x376 - x364 + 18 x289 <= 17
 l242: x376 - x365 + 18 x290 <= 17
 l243: x376 - x366 + 18 x291 <= 17
 l244: x376 - x367 + 18 x292 <= 17
 l245: x376 - x368 + 18 x293 <= 17
 l246: x376 - x369 + 18 x294 <= 17
 l247: x376 - x370 + 18 x295 <= 17
 l248: x376 - x371 + 18 x296 <= 17
 l249: x376 - x372 + 18 x297 <= 17
 l250: x376 - x373 + 18 x298 <= 17
 l251: x376 - x374 + 18 x299 <= 17
 l252: x376 - x375 + 18 x300 <= 17
 l253: x376 - x377 + 18 x302 <= 17
 l254: x376 - x378 + 18 x303 <= 17
 l255: x376 - x379 + 18 x304 <= 17
 l256: x377 - x362 + 18 x306 <= 17
 l257: x377 - x363 + 18 x307 <= 17
 l258: x377 - x364 + 18 x308 <= 17
 l259: x377 - x365 + 18 x309 <= 17
 l260: x377 - x366 + 18 x310 <= 17
 l261: x377 - x367 + 18 x311 <= 17
 l262: x377 - x368 + 18 x312 <= 17
 l263: x377 - x369 + 18 x313 <= 17
 l264: x377 - x370 + 18 x314 <= 17
 l265: x377 - x371 + 18 x315 <= 17
 l266: x377 - x372 + 18 x316 <= 17
 l267: x377 - x373 + 18 x317 <= 17
 l268: x377 - x374 + 18 x318 <= 17
 l269: x377 - x375 + 18 x319 <= 17
 l270: x377 - x376 + 18 x320 <= 17
 l271: x377 - x378 + 18 x322 <= 17
 l272: x377 - x379 + 18 x323 <= 17
 l273: x378 - x362 + 18 x325 <= 17
 l274: x378 - x363 + 18 x326 <= 17
 l275: x378 - x364 + 18 x327 <= 17
 l276: x378 - x365 + 18 x328 <= 17
 l277: x378 - x366 + 18 x329 <= 17
 l278: x378 - x367 + 18 x330 <= 17
 l279: x378 - x368 + 18 x331 <= 17
 l280: x378 - x369 + 18 x332 <= 17
 l281: x378 - x370 + 18 x333 <= 17
 l282: x378 - x371 + 18 x334 <= 17
 l283: x378 - x372 + 18 x335 <= 17
 l284: x378 - x373 + 18 x336 <= 17
 l285: x378 - x374 + 18 x337 <= 17
 l286: x378 - x375 + 18 x338 <= 17
 l287: x378 - x376 + 18 x339 <= 17
 l288: x378 - x377 + 18 x340 <= 17
 l289: x378 - x379 + 18 x342 <= 17
 l290: x379 - x362 + 18 x344 <= 17
 l291: x379 - x363 + 18 x345 <= 17
 l292: x379 - x364 + 18 x346 <= 17
 l293: x379 - x365 + 18 x347 <= 17
 l294: x379 - x366 + 18 x348 <= 17
 l295: x379 - x367 + 18 x349 <= 17
 l296: x379 - x368 + 18 x350 <= 17
 l297: x379 - x369 + 18 x351 <= 17
 l298: x379 - x370 + 18 x352 <= 17
 l299: x379 - x371 + 18 x353 <= 17
 l300: x379 - x372 + 18 x354 <= 17
 l301: x379 - x373 + 18 x355 <= 17
 l302: x379 - x374 + 18 x356 <= 17
 l303: x379 - x375 + 18 x357 <= 17
 l304: x379 - x376 + 18 x358 <= 17
 l305: x379 - x377 + 18 x359 <= 17
 l306: x379 - x378 + 18 x360 <= 17
 l307: x2 + x20 <= 1
 l308: x3 + x39 <= 1
 l309: x4 + x58 <= 1
 l310: x5 + x77 <= 1
 l311: x6 + x96 <= 1
 l312: x7 + x115 <= 1
 l313: x8 + x134 <= 1
 l314: x9 + x153 <= 1
 l315: x10 + x172 <= 1
 l316: x11 + x191 <= 1
 l317: x12 + x210 <= 1
 l318: x13 + x229 <= 1
 l319: x14 + x248 <= 1
 l320: x15 + x267 <= 1
 l321: x16 + x286 <= 1
 l322: x17 + x305 <= 1
 l323: x18 + x324 <= 1
 l324: x19 + x343 <= 1
 l325: x22 + x40 <= 1
 l326: x23 + x59 <= 1
 l327: x24 + x78 <= 1
 l328: x25 + x97 <= 1
 l329: x26 + x116 <= 1
 l330: x27 + x135 <= 1
 l331: x28 + x154 <= 1
 l332: x29 + x173 <= 1
 l333: x30 + x192 <= 1
 l334: x31 + x211 <= 1
 l335: x32 + x230 <= 1
 l336: x33 + x249 <= 1
 l337: x34 + x268 <= 1
 l338: x35 + x287 <= 1
 l339: x36 + x306 <= 1
 l340: x37 + x325 <= 1
 l341: x38 + x344 <= 1
 l342: x42 + x60 <= 1
 l343: x43 + x79 <= 1
 l344: x44 + x98 <= 1
 l345: x45 + x117 <= 1
 l346: x46 + x136 <= 1
 l347: x47 + x155 <= 1
 l348: x48 + x174 <= 1
 l349: x49 + x193 <= 1
 l350: x50 + x212 <= 1
 l351: x51 + x231 <= 1
 l352: x52 + x250 <= 1
 l353: x53 + x269 <= 1
 l354: x54 + x288 <= 1
 l355: x55 + x307 <= 1
 l356: x56 + x326 <= 1
 l357: x57 + x345 <= 1
 l358: x62 + x80 <= 1
 l359: x63 + x99 <= 1
 l360: x64 + x118 <= 1
 l361: x65 + x137 <= 1
 l362: x66 + x156 <= 1
 l363: x67 + x175 <= 1
 l364: x68 + x194 <= 1
 l365: x69 + x213 <= 1
 l366: x70 + x232 <= 1
 l367: x71 + x251 <= 1
 l368: x72 + x270 <= 1
 l369: x73 + x289 <= 1
 l370: x74 + x308 <= 1
 l371: x75 + x327 <= 1
 l372: x76 + x346 <= 1
 l373: x82 + x100 <= 1
 l374: x83 + x119 <= 1
 l375: x84 + x138 <= 1
 l376: x85 + x157 <= 1
 l377: x86 + x176 <= 1
 l378: x87 + x195 <= 1
 l379: x88 + x214 <= 1
 l380: x89 + x233 <= 1
 l381: x90 + x252 <= 1
 l382: x91 + x271 <= 1
 l383: x92 + x290 <= 1
 l384: x93 + x309 <= 1
 l385: x94 + x328 <= 1
 l386: x95 + x347 <= 1
 l387: x102 + x120 <= 1
 l388: x103 + x139 <= 1
 l389: x104 + x158 <= 1
 l390: x105 + x177 <= 1
 l391: x106 + x196 <= 1
 l392: x107 + x215 <= 1
 l393: x108 + x234 <= 1
 l394: x109 + x253 <= 1
 l395: x110 + x272 <= 1
 l396: x111 + x291 <= 1
 l397: x112 + x310 <= 1
 l398: x113 + x329 <= 1
 l399: x114 + x348 <= 1
 l400: x122 + x140 <= 1
 l401: x123 + x159 <= 1
 l402: x124 + x178 <= 1
 l403: x125 + x197 <= 1
 l404: x126 + x216 <= 1
 l405: x127 + x235 <= 1
 l406: x128 + x254 <= 1
 l407: x129 + x273 <= 1
 l408: x130 + x292 <= 1
 l409: x131 + x311 <= 1
 l410: x132 + x330 <= 1
 l411: x133 + x349 <= 1
 l412: x142 + x160 <= 1
 l413: x143 + x179 <= 1
 l414: x144 + x198 <= 1
 l415: x145 + x217 <= 1
 l416: x146 + x236 <= 1
 l417: x147 + x255 <= 1
 l418: x148 + x274 <= 1
 l419: x149 + x293 <= 1
 l420: x150 + x312 <= 1
 l421: x151 + x331 <= 1
 l422: x152 + x350 <= 1
 l423: x162 + x180 <= 1
 l424: x163 + x199 <= 1
 l425: x164 + x218 <= 1
 l426: x165 + x237 <= 1
 l427: x166 + x256 <= 1
 l428: x167 + x275 <= 1
 l429: x168 + x294 <= 1
 l430: x169 + x313 <= 1
 l431: x170 + x332 <= 1
 l432: x171 + x351 <= 1
 l433: x182 + x200 <= 1
 l434: x183 + x219 <= 1
 l435: x184 + x238 <= 1
 l436: x185 + x257 <= 1
 l437: x186 + x276 <= 1
 l438: x187 + x295 <= 1
 l439: x188 + x314 <= 1
 l440: x189 + x333 <= 1
 l441: x190 + x352 <= 1
 l442: x202 + x220 <= 1
 l443: x203 + x239 <= 1
 l444: x204 + x258 <= 1
 l445: x205 + x277 <= 1
 l446: x206 + x296 <= 1
 l447: x207 + x315 <= 1
 l448: x208 + x334 <= 1
 l449: x209 + x353 <= 1
 l450: x222 + x240 <= 1
 l451: x223 + x259 <= 1
 l452: x224 + x278 <= 1
 l453: x225 + x297 <= 1
 l454: x226 + x316 <= 1
 l455: x227 + x335 <= 1
 l456: x228 + x354 <= 1
 l457: x242 + x260 <= 1
 l458: x243 + x279 <= 1
 l459: x244 + x298 <= 1
 l460: x245 + x317 <= 1
 l461: x246 + x336 <= 1
 l462: x247 + x355 <= 1
 l463: x262 + x280 <= 1
 l464: x263 + x299 <= 1
 l465: x264 + x318 <= 1
 l466: x265 + x337 <= 1
 l467: x266 + x356 <= 1
 l468: x282 + x300 <= 1
 l469: x283 + x319 <= 1
 l470: x284 + x338 <= 1
 l471: x285 + x357 <= 1
 l472: x302 + x320 <= 1
 l473: x303 + x339 <= 1
 l474: x304 + x358 <= 1
 l475: x322 + x340 <= 1
 l476: x323 + x359 <= 1
 l477: x342 + x360 <= 1
Bounds
      x1 = 0
 0 <= x2 <= 1
 0 <= x3 <= 1
 0 <= x4 <= 1
 0 <= x5 <= 1
 0 <= x6 <= 1
 0 <= x7 <= 1
 0 <= x8 <= 1
 0 <= x9 <= 1
 0 <= x10 <= 1
 0 <= x11 <= 1
 0 <= x12 <= 1
 0 <= x13 <= 1
 0 <= x14 <= 1
 0 <= x15 <= 1
 0 <= x16 <= 1
 0 <= x17 <= 1
 0 <= x18 <= 1
 0 <= x19 <= 1
 0 <= x20 <= 1
      x21 = 0
 0 <= x22 <= 1
 0 <= x23 <= 1
 0 <= x24 <= 1
 0 <= x25 <= 1
 0 <= x26 <= 1
 0 <= x27 <= 1
 0 <= x28 <= 1
 0 <= x29 <= 1
 0 <= x30 <= 1
 0 <= x31 <= 1
 0 <= x32 <= 1
 0 <= x33 <= 1
 0 <= x34 <= 1
 0 <= x35 <= 1
 0 <= x36 <= 1
 0 <= x37 <= 1
 0 <= x38 <= 1
 0 <= x39 <= 1
 0 <= x40 <= 1
      x41 = 0
 0 <= x42 <= 1
 0 <= x43 <= 1
 0 <= x44 <= 1
 0 <= x45 <= 1
 0 <= x46 <= 1
 0 <= x47 <= 1
 0 <= x48 <= 1
 0 <= x49 <= 1
 0 <= x50 <= 1
 0 <= x51 <= 1
 0 <= x52 <= 1
 0 <= x53 <= 1
 0 <= x54 <= 1
 0 <= x55 <= 1
 0 <= x56 <= 1
 0 <= x57 <= 1
 0 <= x58 <= 1
 0 <= x59 <= 1
 0 <= x60 <= 1
      x61 = 0
 0 <= x62 <= 1
 0 <= x63 <= 1
 0 <= x64 <= 1
 0 <= x65 <= 1
 0 <= x66 <= 1
 0 <= x67 <= 1
 0 <= x68 <= 1
 0 <= x69 <= 1
 0 <= x70 <= 1
 0 <= x71 <= 1
 0 <= x72 <= 1
 0 <= x73 <= 1
 0 <= x74 <= 1
 0 <= x75 <= 1
 0 <= x76 <= 1
 0 <= x77 <= 1
 0 <= x78 <= 1
 0 <= x79 <= 1
 0 <= x80 <= 1
      x81 = 0
 0 <= x82 <= 1
 0 <= x83 <= 1
 0 <= x84 <= 1
 0 <= x85 <= 1
 0 <= x86 <= 1
 0 <= x87 <= 1
 0 <= x88 <= 1
 0 <= x89 <= 1
 0 <= x90 <= 1
 0 <= x91 <= 1
 0 <= x92 <= 1
 0 <= x93 <= 1
 0 <= x94 <= 1
 0 <= x95 <= 1
 0 <= x96 <= 1
 0 <= x97 <= 1
 0 <= x98 <= 1
 0 <= x99 <= 1
 0 <= x100 <= 1
      x101 = 0
 0 <= x102 <= 1
 0 <= x103 <= 1
 0 <= x104 <= 1
 0 <= x105 <= 1
 0 <= x106 <= 1
 0 <= x107 <= 1
 0 <= x108 <= 1
 0 <= x109 <= 1
 0 <= x110 <= 1
 0 <= x111 <= 1
 0 <= x112 <= 1
 0 <= x113 <= 1
 0 <= x114 <= 1
 0 <= x115 <= 1
 0 <= x116 <= 1
 0 <= x117 <= 1
 0 <= x118 <= 1
 0 <= x119 <= 1
 0 <= x120 <= 1
      x121 = 0
 0 <= x122 <= 1
 0 <= x123 <= 1
 0 <= x124 <= 1
 0 <= x125 <= 1
 0 <= x126 <= 1
 0 <= x127 <= 1
 0 <= x128 <= 1
 0 <= x129 <= 1
 0 <= x130 <= 1
 0 <= x131 <= 1
 0 <= x132 <= 1
 0 <= x133 <= 1
 0 <= x134 <= 1
 0 <= x135 <= 1
 0 <= x136 <= 1
 0 <= x137 <= 1
 0 <= x138 <= 1
 0 <= x139 <= 1
 0 <= x140 <= 1
      x141 = 0
 0 <= x142 <= 1
 0 <= x143 <= 1
 0 <= x144 <= 1
 0 <= x145 <= 1
 0 <= x146 <= 1
 0 <= x147 <= 1
 0 <= x148 <= 1
 0 <= x149 <= 1
 0 <= x150 <= 1
 0 <= x151 <= 1
 0 <= x152 <= 1
 0 <= x153 <= 1
 0 <= x154 <= 1
 0 <= x155 <= 1
 0 <= x156 <= 1
 0 <= x157 <= 1
 0 <= x158 <= 1
 0 <= x159 <= 1
 0 <= x160 <= 1
      x161 = 0
 0 <= x162 <= 1
 0 <= x163 <= 1
 0 <= x164 <= 1
 0 <= x165 <= 1
 0 <= x166 <= 1
 0 <= x167 <= 1
 0 <= x168 <= 1
 0 <= x169 <= 1
 0 <= x170 <= 1
 0 <= x171 <= 1
 0 <= x172 <= 1
 0 <= x173 <= 1
 0 <= x174 <= 1
 0 <= x175 <= 1
 0 <= x176 <= 1
 0 <= x177 <= 1
 0 <= x178 <= 1
 0 <= x179 <= 1
 0 <= x180 <= 1
      x181 = 0
 0 <= x182 <= 1
 0 <= x183 <= 1
 0 <= x184 <= 1
 0 <= x185 <= 1
 0 <= x186 <= 1
 0 <= x187 <= 1
 0 <= x188 <= 1
 0 <= x189 <= 1
 0 <= x190 <= 1
 0 <= x191 <= 1
 0 <= x192 <= 1
 0 <= x193 <= 1
 0 <= x194 <= 1
 0 <= x195 <= 1
 0 <= x196 <= 1
 0 <= x197 <= 1
 0 <= x198 <= 1
 0 <= x199 <= 1
 0 <= x200 <= 1
      x201 = 0
 0 <= x202 <= 1
 0 <= x203 <= 1
 0 <= x204 <= 1
 0 <= x205 <= 1
 0 <= x206 <= 1
 0 <= x207 <= 1
 0 <= x208 <= 1
 0 <= x209 <= 1
 0 <= x210 <= 1
 0 <= x211 <= 1
 0 <= x212 <= 1
 0 <= x213 <= 1
 0 <= x214 <= 1
 0 <= x215 <= 1
 0 <= x216 <= 1
 0 <= x217 <= 1
 0 <= x218 <= 1
 0 <= x219 <= 1
 0 <= x220 <= 1
      x221 = 0
 0 <= x222 <= 1
 0 <= x223 <= 1
 0 <= x224 <= 1
 0 <= x225 <= 1
 0 <= x226 <= 1
 0 <= x227 <= 1
 0 <= x228 <= 1
 0 <= x229 <= 1
 0 <= x230 <= 1
 0 <= x231 <= 1
 0 <= x232 <= 1
 0 <= x233 <= 1
 0 <= x234 <= 1
 0 <= x235 <= 1
 0 <= x236 <= 1
 0 <= x237 <= 1
 0 <= x238 <= 1
 0 <= x239 <= 1
 0 <= x240 <= 1
      x241 = 0
 0 <= x242 <= 1
 0 <= x243 <= 1
 0 <= x244 <= 1
 0 <= x245 <= 1
 0 <= x246 <= 1
 0 <= x247 <= 1
 0 <= x248 <= 1
 0 <= x249 <= 1
 0 <= x250 <= 1
 0 <= x251 <= 1
 0 <= x252 <= 1
 0 <= x253 <= 1
 0 <= x254 <= 1
 0 <= x255 <= 1
 0 <= x256 <= 1
 0 <= x257 <= 1
 0 <= x258 <= 1
 0 <= x259 <= 1
 0 <= x260 <= 1
      x261 = 0
 0 <= x262 <= 1
 0 <= x263 <= 1
 0 <= x264 <= 1
 0 <= x265 <= 1
 0 <= x266 <= 1
 0 <= x267 <= 1
 0 <= x268 <= 1
 0 <= x269 <= 1
 0 <= x270 <= 1
 0 <= x271 <= 1
 0 <= x272 <= 1
 0 <= x273 <= 1
 0 <= x274 <= 1
 0 <= x275 <= 1
 0 <= x276 <= 1
 0 <= x277 <= 1
 0 <= x278 <= 1
 0 <= x279 <= 1
 0 <= x280 <= 1
      x281 = 0
 0 <= x282 <= 1
 0 <= x283 <= 1
 0 <= x284 <= 1
 0 <= x285 <= 1
 0 <= x286 <= 1
 0 <= x287 <= 1
 0 <= x288 <= 1
 0 <= x289 <= 1
 0 <= x290 <= 1
 0 <= x291 <= 1
 0 <= x292 <= 1
 0 <= x293 <= 1
 0 <= x294 <= 1
 0 <= x295 <= 1
 0 <= x296 <= 1
 0 <= x297 <= 1
 0 <= x298 <= 1
 0 <= x299 <= 1
 0 <= x300 <= 1
      x301 = 0
 0 <= x302 <= 1
 0 <= x303 <= 1
 0 <= x304 <= 1
 0 <= x305 <= 1
 0 <= x306 <= 1
 0 <= x307 <= 1
 0 <= x308 <= 1
 0 <= x309 <= 1
 0 <= x310 <= 1
 0 <= x311 <= 1
 0 <= x312 <= 1
 0 <= x313 <= 1
 0 <= x314 <= 1
 0 <= x315 <= 1
 0 <= x316 <= 1
 0 <= x317 <= 1
 0 <= x318 <= 1
 0 <= x319 <= 1
 0 <= x320 <= 1
      x321 = 0
 0 <= x322 <= 1
 0 <= x323 <= 1
 0 <= x324 <= 1
 0 <= x325 <= 1
 0 <= x326 <= 1
 0 <= x327 <= 1
 0 <= x328 <= 1
 0 <= x329 <= 1
 0 <= x330 <= 1
 0 <= x331 <= 1
 0 <= x332 <= 1
 0 <= x333 <= 1
 0 <= x334 <= 1
 0 <= x335 <= 1
 0 <= x336 <= 1
 0 <= x337 <= 1
 0 <= x338 <= 1
 0 <= x339 <= 1
 0 <= x340 <= 1
      x341 = 0
 0 <= x342 <= 1
 0 <= x343 <= 1
 0 <= x344 <= 1
 0 <= x345 <= 1
 0 <= x346 <= 1
 0 <= x347 <= 1
 0 <= x348 <= 1
 0 <= x349 <= 1
 0 <= x350 <= 1
 0 <= x351 <= 1
 0 <= x352 <= 1
 0 <= x353 <= 1
 0 <= x354 <= 1
 0 <= x355 <= 1
 0 <= x356 <= 1
 0 <= x357 <= 1
 0 <= x358 <= 1
 0 <= x359 <= 1
 0 <= x360 <= 1
      x361 = 0
 1 <= x362 <= 18
 1 <= x363 <= 18
 1 <= x364 <= 18
 1 <= x365 <= 18
 1 <= x366 <= 18
 1 <= x367 <= 18
 1 <= x368 <= 18
 1 <= x369 <= 18
 1 <= x370 <= 18
 1 <= x371 <= 18
 1 <= x372 <= 18
 1 <= x373 <= 18
 1 <= x374 <= 18
 1 <= x375 <= 18
 1 <= x376 <= 18
 1 <= x377 <= 18
 1 <= x378 <= 18
 1 <= x379 <= 18
Binaries
 x1  x2  x3  x4  x5  x6  x7  x8  x9  x10  x11  x12  x13  x14  x15  x16  x17 
 x18  x19  x20  x21  x22  x23  x24  x25  x26  x27  x28  x29  x30  x31  x32 
 x33  x34  x35  x36  x37  x38  x39  x40  x41  x42  x43  x44  x45  x46  x47 
 x48  x49  x50  x51  x52  x53  x54  x55  x56  x57  x58  x59  x60  x61  x62 
 x63  x64  x65  x66  x67  x68  x69  x70  x71  x72  x73  x74  x75  x76  x77 
 x78  x79  x80  x81  x82  x83  x84  x85  x86  x87  x88  x89  x90  x91  x92 
 x93  x94  x95  x96  x97  x98  x99  x100  x101  x102  x103  x104  x105  x106 
 x107  x108  x109  x110  x111  x112  x113  x114  x115  x116  x117  x118  x119 
 x120  x121  x122  x123  x124  x125  x126  x127  x128  x129  x130  x131  x132 
 x133  x134  x135  x136  x137  x138  x139  x140  x141  x142  x143  x144  x145 
 x146  x147  x148  x149  x150  x151  x152  x153  x154  x155  x156  x157  x158 
 x159  x160  x161  x162  x163  x164  x165  x166  x167  x168  x169  x170  x171 
 x172  x173  x174  x175  x176  x177  x178  x179  x180  x181  x182  x183  x184 
 x185  x186  x187  x188  x189  x190  x191  x192  x193  x194  x195  x196  x197 
 x198  x199  x200  x201  x202  x203  x204  x205  x206  x207  x208  x209  x210 
 x211  x212  x213  x214  x215  x216  x217  x218  x219  x220  x221  x222  x223 
 x224  x225  x226  x227  x228  x229  x230  x231  x232  x233  x234  x235  x236 
 x237  x238  x239  x240  x241  x242  x243  x244  x245  x246  x247  x248  x249 
 x250  x251  x252  x253  x254  x255  x256  x257  x258  x259  x260  x261  x262 
 x263  x264  x265  x266  x267  x268  x269  x270  x271  x272  x273  x274  x275 
 x276  x277  x278  x279  x280  x281  x282  x283  x284  x285  x286  x287  x288 
 x289  x290  x291  x292  x293  x294  x295  x296  x297  x298  x299  x300  x301 
 x302  x303  x304  x305  x306  x307  x308  x309  x310  x311  x312  x313  x314 
 x315  x316  x317  x318  x319  x320  x321  x322  x323  x324  x325  x326  x327 
 x328  x329  x330  x331  x332  x333  x334  x335  x336  x337  x338  x339  x340 
 x341  x342  x343  x344  x345  x346  x347  x348  x349  x350  x351  x352  x353 
 x354  x355  x356  x357  x358  x359  x360  x361 
Generals
 x362  x363  x364  x365  x366  x367  x368  x369  x370  x371  x372  x373  x374 
 x375  x376  x377  x378  x379 
End
